r = [
0,209,94,7,8,71,54,69,145,48,66,180,166,101,109,113,69,134,56,99,9,187,215,131,77,140,0
];
p = [
0,6,1,18,28,18,22,30,18,2,27,8,9,6,14,28,28,25,14,9,14,26,20,21,19,20,0
];
e = [
0,19,18,8,1,2,3,12,19,10,1,7,2,19,10,3,8,10,2,14,7,7,20,4,18,20,0
];
d = [
0,424,313,209,241,272,275,275,366,251,273,413,378,320,334,322,301,329,269,326,213,420,419,333,306,337,425
];
d_bar = [
0,425,314,211,244,274,277,278,368,252,276,414,379,321,335,325,304,332,270,327,214,423,421,335,308,339,425
];
w = [
0,19,18,4,0.333333333,1,1.5,4,9.5,10,0.333333333,7,2,19,10,1,2.666666667,3.333333333,2,14,7,2.333333333,10,2,9,10,0
];
